<instance>
<presentation name="#25_4_6_6_random#" maxConstraintArity="2" maximize="false" format="XCSP 2.1_FRODO"/>

<agents nbAgents ="25">
  <agent name="agent0" />
  <agent name="agent1" />
  <agent name="agent2" />
  <agent name="agent3" />
  <agent name="agent4" />
  <agent name="agent5" />
  <agent name="agent6" />
  <agent name="agent7" />
  <agent name="agent8" />
  <agent name="agent9" />
  <agent name="agent10" />
  <agent name="agent11" />
  <agent name="agent12" />
  <agent name="agent13" />
  <agent name="agent14" />
  <agent name="agent15" />
  <agent name="agent16" />
  <agent name="agent17" />
  <agent name="agent18" />
  <agent name="agent19" />
  <agent name="agent20" />
  <agent name="agent21" />
  <agent name="agent22" />
  <agent name="agent23" />
  <agent name="agent24" />
</agents>

<domains nbDomains="1">
  <domain name="d4">0..3</domain>
</domains>

<variables nbVariables="25">
  <variable name="v0" domain="d4" agent="agent0" />
  <variable name="v1" domain="d4" agent="agent1" />
  <variable name="v2" domain="d4" agent="agent2" />
  <variable name="v3" domain="d4" agent="agent3" />
  <variable name="v4" domain="d4" agent="agent4" />
  <variable name="v5" domain="d4" agent="agent5" />
  <variable name="v6" domain="d4" agent="agent6" />
  <variable name="v7" domain="d4" agent="agent7" />
  <variable name="v8" domain="d4" agent="agent8" />
  <variable name="v9" domain="d4" agent="agent9" />
  <variable name="v10" domain="d4" agent="agent10" />
  <variable name="v11" domain="d4" agent="agent11" />
  <variable name="v12" domain="d4" agent="agent12" />
  <variable name="v13" domain="d4" agent="agent13" />
  <variable name="v14" domain="d4" agent="agent14" />
  <variable name="v15" domain="d4" agent="agent15" />
  <variable name="v16" domain="d4" agent="agent16" />
  <variable name="v17" domain="d4" agent="agent17" />
  <variable name="v18" domain="d4" agent="agent18" />
  <variable name="v19" domain="d4" agent="agent19" />
  <variable name="v20" domain="d4" agent="agent20" />
  <variable name="v21" domain="d4" agent="agent21" />
  <variable name="v22" domain="d4" agent="agent22" />
  <variable name="v23" domain="d4" agent="agent23" />
  <variable name="v24" domain="d4" agent="agent24" />
</variables>

<relations nbRelations="105">
  <relation name="0_1" arity="2" nbTuples="16" semantics="soft" defaultCost="0">
    19 : 3 1 | 41 : 3 0 | 41 : 3 3 | 67 : 3 2 | 23 : 2 0 | 4 : 2 1 | 90 : 2 2 | 42 : 2 3 | 81 : 1 3 | 1 : 1 2 | 23 : 1 1 | 13 : 1 0 | 60 : 0 2 | 17 : 0 3 | 93 : 0 0 | 4 : 0 1 
  </relation>
  <relation name="0_5" arity="2" nbTuples="16" semantics="soft" defaultCost="0">
    85 : 3 1 | 13 : 3 0 | 3 : 3 3 | 72 : 3 2 | 41 : 2 0 | 66 : 2 1 | 30 : 2 2 | 38 : 2 3 | 98 : 1 3 | 95 : 1 2 | 20 : 1 1 | 25 : 1 0 | 11 : 0 2 | 76 : 0 3 | 54 : 0 0 | 73 : 0 1 
  </relation>
  <relation name="0_8" arity="2" nbTuples="16" semantics="soft" defaultCost="0">
    20 : 3 1 | 67 : 3 0 | 74 : 3 3 | 39 : 3 2 | 67 : 2 0 | 9 : 2 1 | 40 : 2 2 | 78 : 2 3 | 81 : 1 3 | 84 : 1 2 | 58 : 1 1 | 76 : 1 0 | 88 : 0 2 | 34 : 0 3 | 52 : 0 0 | 56 : 0 1 
  </relation>
  <relation name="0_15" arity="2" nbTuples="16" semantics="soft" defaultCost="0">
    64 : 3 1 | 96 : 3 0 | 57 : 3 3 | 23 : 3 2 | 87 : 2 0 | 56 : 2 1 | 84 : 2 2 | 5 : 2 3 | 53 : 1 3 | 30 : 1 2 | 40 : 1 1 | 44 : 1 0 | 86 : 0 2 | 76 : 0 3 | 12 : 0 0 | 49 : 0 1 
  </relation>
  <relation name="0_17" arity="2" nbTuples="16" semantics="soft" defaultCost="0">
    59 : 3 1 | 2 : 3 0 | 14 : 3 3 | 51 : 3 2 | 48 : 2 0 | 42 : 2 1 | 17 : 2 2 | 47 : 2 3 | 11 : 1 3 | 21 : 1 2 | 74 : 1 1 | 19 : 1 0 | 20 : 0 2 | 3 : 0 3 | 22 : 0 0 | 31 : 0 1 
  </relation>
  <relation name="0_20" arity="2" nbTuples="16" semantics="soft" defaultCost="0">
    91 : 3 1 | 32 : 3 0 | 78 : 3 3 | 65 : 3 2 | 68 : 2 0 | 19 : 2 1 | 71 : 2 2 | 85 : 2 3 | 11 : 1 3 | 26 : 1 2 | 71 : 1 1 | 54 : 1 0 | 86 : 0 2 | 46 : 0 3 | 5 : 0 0 | 58 : 0 1 
  </relation>
  <relation name="0_23" arity="2" nbTuples="16" semantics="soft" defaultCost="0">
    89 : 3 1 | 24 : 3 0 | 21 : 3 3 | 14 : 3 2 | 50 : 2 0 | 7 : 2 1 | 91 : 2 2 | 25 : 2 3 | 93 : 1 3 | 72 : 1 2 | 44 : 1 1 | 12 : 1 0 | 69 : 0 2 | 53 : 0 3 | 51 : 0 0 | 29 : 0 1 
  </relation>
  <relation name="1_4" arity="2" nbTuples="16" semantics="soft" defaultCost="0">
    81 : 3 1 | 77 : 3 0 | 23 : 3 3 | 22 : 3 2 | 68 : 2 0 | 87 : 2 1 | 8 : 2 2 | 64 : 2 3 | 59 : 1 3 | 92 : 1 2 | 49 : 1 1 | 7 : 1 0 | 17 : 0 2 | 99 : 0 3 | 88 : 0 0 | 22 : 0 1 
  </relation>
  <relation name="1_7" arity="2" nbTuples="16" semantics="soft" defaultCost="0">
    72 : 3 1 | 24 : 3 0 | 15 : 3 3 | 84 : 3 2 | 94 : 2 0 | 83 : 2 1 | 81 : 2 2 | 17 : 2 3 | 11 : 1 3 | 17 : 1 2 | 60 : 1 1 | 15 : 1 0 | 32 : 0 2 | 33 : 0 3 | 100 : 0 0 | 29 : 0 1 
  </relation>
  <relation name="1_8" arity="2" nbTuples="16" semantics="soft" defaultCost="0">
    94 : 3 1 | 13 : 3 0 | 80 : 3 3 | 64 : 3 2 | 88 : 2 0 | 85 : 2 1 | 43 : 2 2 | 47 : 2 3 | 77 : 1 3 | 45 : 1 2 | 74 : 1 1 | 66 : 1 0 | 1 : 0 2 | 26 : 0 3 | 98 : 0 0 | 63 : 0 1 
  </relation>
  <relation name="1_11" arity="2" nbTuples="16" semantics="soft" defaultCost="0">
    82 : 3 1 | 83 : 3 0 | 39 : 3 3 | 49 : 3 2 | 67 : 2 0 | 77 : 2 1 | 35 : 2 2 | 17 : 2 3 | 71 : 1 3 | 73 : 1 2 | 42 : 1 1 | 74 : 1 0 | 23 : 0 2 | 16 : 0 3 | 26 : 0 0 | 52 : 0 1 
  </relation>
  <relation name="1_12" arity="2" nbTuples="16" semantics="soft" defaultCost="0">
    46 : 3 1 | 25 : 3 0 | 54 : 3 3 | 23 : 3 2 | 88 : 2 0 | 38 : 2 1 | 95 : 2 2 | 10 : 2 3 | 37 : 1 3 | 90 : 1 2 | 45 : 1 1 | 20 : 1 0 | 87 : 0 2 | 63 : 0 3 | 27 : 0 0 | 28 : 0 1 
  </relation>
  <relation name="1_13" arity="2" nbTuples="16" semantics="soft" defaultCost="0">
    16 : 3 1 | 19 : 3 0 | 57 : 3 3 | 72 : 3 2 | 4 : 2 0 | 59 : 2 1 | 76 : 2 2 | 12 : 2 3 | 14 : 1 3 | 67 : 1 2 | 66 : 1 1 | 38 : 1 0 | 21 : 0 2 | 21 : 0 3 | 57 : 0 0 | 41 : 0 1 
  </relation>
  <relation name="1_15" arity="2" nbTuples="16" semantics="soft" defaultCost="0">
    63 : 3 1 | 8 : 3 0 | 9 : 3 3 | 77 : 3 2 | 76 : 2 0 | 16 : 2 1 | 9 : 2 2 | 18 : 2 3 | 57 : 1 3 | 100 : 1 2 | 6 : 1 1 | 3 : 1 0 | 31 : 0 2 | 72 : 0 3 | 32 : 0 0 | 77 : 0 1 
  </relation>
  <relation name="1_18" arity="2" nbTuples="16" semantics="soft" defaultCost="0">
    99 : 3 1 | 52 : 3 0 | 74 : 3 3 | 18 : 3 2 | 30 : 2 0 | 6 : 2 1 | 54 : 2 2 | 87 : 2 3 | 25 : 1 3 | 26 : 1 2 | 100 : 1 1 | 83 : 1 0 | 2 : 0 2 | 75 : 0 3 | 26 : 0 0 | 54 : 0 1 
  </relation>
  <relation name="1_22" arity="2" nbTuples="16" semantics="soft" defaultCost="0">
    79 : 3 1 | 21 : 3 0 | 48 : 3 3 | 71 : 3 2 | 81 : 2 0 | 36 : 2 1 | 8 : 2 2 | 18 : 2 3 | 64 : 1 3 | 17 : 1 2 | 50 : 1 1 | 73 : 1 0 | 60 : 0 2 | 15 : 0 3 | 2 : 0 0 | 81 : 0 1 
  </relation>
  <relation name="1_24" arity="2" nbTuples="16" semantics="soft" defaultCost="0">
    21 : 3 1 | 9 : 3 0 | 18 : 3 3 | 24 : 3 2 | 27 : 2 0 | 96 : 2 1 | 73 : 2 2 | 82 : 2 3 | 76 : 1 3 | 55 : 1 2 | 71 : 1 1 | 43 : 1 0 | 10 : 0 2 | 20 : 0 3 | 32 : 0 0 | 83 : 0 1 
  </relation>
  <relation name="2_5" arity="2" nbTuples="16" semantics="soft" defaultCost="0">
    94 : 3 1 | 27 : 3 0 | 77 : 3 3 | 97 : 3 2 | 95 : 2 0 | 63 : 2 1 | 76 : 2 2 | 59 : 2 3 | 7 : 1 3 | 85 : 1 2 | 24 : 1 1 | 66 : 1 0 | 24 : 0 2 | 74 : 0 3 | 11 : 0 0 | 20 : 0 1 
  </relation>
  <relation name="2_6" arity="2" nbTuples="16" semantics="soft" defaultCost="0">
    72 : 3 1 | 12 : 3 0 | 72 : 3 3 | 10 : 3 2 | 51 : 2 0 | 65 : 2 1 | 84 : 2 2 | 23 : 2 3 | 36 : 1 3 | 10 : 1 2 | 49 : 1 1 | 58 : 1 0 | 11 : 0 2 | 69 : 0 3 | 6 : 0 0 | 98 : 0 1 
  </relation>
  <relation name="2_9" arity="2" nbTuples="16" semantics="soft" defaultCost="0">
    93 : 3 1 | 56 : 3 0 | 13 : 3 3 | 97 : 3 2 | 42 : 2 0 | 8 : 2 1 | 39 : 2 2 | 87 : 2 3 | 64 : 1 3 | 97 : 1 2 | 79 : 1 1 | 100 : 1 0 | 55 : 0 2 | 96 : 0 3 | 76 : 0 0 | 89 : 0 1 
  </relation>
  <relation name="2_13" arity="2" nbTuples="16" semantics="soft" defaultCost="0">
    44 : 3 1 | 91 : 3 0 | 74 : 3 3 | 64 : 3 2 | 11 : 2 0 | 28 : 2 1 | 86 : 2 2 | 52 : 2 3 | 70 : 1 3 | 7 : 1 2 | 15 : 1 1 | 18 : 1 0 | 100 : 0 2 | 2 : 0 3 | 90 : 0 0 | 100 : 0 1 
  </relation>
  <relation name="2_17" arity="2" nbTuples="16" semantics="soft" defaultCost="0">
    49 : 3 1 | 27 : 3 0 | 46 : 3 3 | 85 : 3 2 | 37 : 2 0 | 61 : 2 1 | 66 : 2 2 | 92 : 2 3 | 75 : 1 3 | 19 : 1 2 | 13 : 1 1 | 14 : 1 0 | 29 : 0 2 | 100 : 0 3 | 82 : 0 0 | 53 : 0 1 
  </relation>
  <relation name="2_18" arity="2" nbTuples="16" semantics="soft" defaultCost="0">
    89 : 3 1 | 34 : 3 0 | 26 : 3 3 | 37 : 3 2 | 78 : 2 0 | 90 : 2 1 | 93 : 2 2 | 16 : 2 3 | 1 : 1 3 | 8 : 1 2 | 67 : 1 1 | 16 : 1 0 | 70 : 0 2 | 26 : 0 3 | 75 : 0 0 | 39 : 0 1 
  </relation>
  <relation name="2_19" arity="2" nbTuples="16" semantics="soft" defaultCost="0">
    30 : 3 1 | 23 : 3 0 | 89 : 3 3 | 21 : 3 2 | 83 : 2 0 | 39 : 2 1 | 89 : 2 2 | 7 : 2 3 | 53 : 1 3 | 33 : 1 2 | 52 : 1 1 | 21 : 1 0 | 48 : 0 2 | 46 : 0 3 | 3 : 0 0 | 34 : 0 1 
  </relation>
  <relation name="2_24" arity="2" nbTuples="16" semantics="soft" defaultCost="0">
    18 : 3 1 | 83 : 3 0 | 61 : 3 3 | 85 : 3 2 | 69 : 2 0 | 17 : 2 1 | 10 : 2 2 | 7 : 2 3 | 84 : 1 3 | 98 : 1 2 | 45 : 1 1 | 75 : 1 0 | 58 : 0 2 | 44 : 0 3 | 20 : 0 0 | 10 : 0 1 
  </relation>
  <relation name="3_5" arity="2" nbTuples="16" semantics="soft" defaultCost="0">
    26 : 3 1 | 76 : 3 0 | 22 : 3 3 | 73 : 3 2 | 25 : 2 0 | 21 : 2 1 | 33 : 2 2 | 15 : 2 3 | 81 : 1 3 | 80 : 1 2 | 73 : 1 1 | 54 : 1 0 | 22 : 0 2 | 89 : 0 3 | 97 : 0 0 | 45 : 0 1 
  </relation>
  <relation name="3_6" arity="2" nbTuples="16" semantics="soft" defaultCost="0">
    62 : 3 1 | 25 : 3 0 | 41 : 3 3 | 55 : 3 2 | 35 : 2 0 | 45 : 2 1 | 83 : 2 2 | 80 : 2 3 | 32 : 1 3 | 47 : 1 2 | 14 : 1 1 | 78 : 1 0 | 42 : 0 2 | 70 : 0 3 | 55 : 0 0 | 40 : 0 1 
  </relation>
  <relation name="3_8" arity="2" nbTuples="16" semantics="soft" defaultCost="0">
    51 : 3 1 | 55 : 3 0 | 43 : 3 3 | 63 : 3 2 | 75 : 2 0 | 45 : 2 1 | 17 : 2 2 | 39 : 2 3 | 31 : 1 3 | 2 : 1 2 | 60 : 1 1 | 70 : 1 0 | 42 : 0 2 | 62 : 0 3 | 9 : 0 0 | 27 : 0 1 
  </relation>
  <relation name="3_17" arity="2" nbTuples="16" semantics="soft" defaultCost="0">
    37 : 3 1 | 66 : 3 0 | 34 : 3 3 | 25 : 3 2 | 51 : 2 0 | 7 : 2 1 | 53 : 2 2 | 93 : 2 3 | 41 : 1 3 | 48 : 1 2 | 52 : 1 1 | 78 : 1 0 | 94 : 0 2 | 75 : 0 3 | 13 : 0 0 | 12 : 0 1 
  </relation>
  <relation name="3_21" arity="2" nbTuples="16" semantics="soft" defaultCost="0">
    72 : 3 1 | 33 : 3 0 | 21 : 3 3 | 94 : 3 2 | 32 : 2 0 | 36 : 2 1 | 79 : 2 2 | 87 : 2 3 | 98 : 1 3 | 89 : 1 2 | 45 : 1 1 | 44 : 1 0 | 77 : 0 2 | 68 : 0 3 | 96 : 0 0 | 92 : 0 1 
  </relation>
  <relation name="3_22" arity="2" nbTuples="16" semantics="soft" defaultCost="0">
    10 : 3 1 | 81 : 3 0 | 49 : 3 3 | 76 : 3 2 | 11 : 2 0 | 34 : 2 1 | 59 : 2 2 | 14 : 2 3 | 98 : 1 3 | 48 : 1 2 | 91 : 1 1 | 66 : 1 0 | 47 : 0 2 | 100 : 0 3 | 71 : 0 0 | 55 : 0 1 
  </relation>
  <relation name="3_24" arity="2" nbTuples="16" semantics="soft" defaultCost="0">
    61 : 3 1 | 11 : 3 0 | 6 : 3 3 | 8 : 3 2 | 7 : 2 0 | 4 : 2 1 | 91 : 2 2 | 56 : 2 3 | 23 : 1 3 | 84 : 1 2 | 94 : 1 1 | 63 : 1 0 | 76 : 0 2 | 72 : 0 3 | 75 : 0 0 | 63 : 0 1 
  </relation>
  <relation name="4_7" arity="2" nbTuples="16" semantics="soft" defaultCost="0">
    72 : 3 1 | 50 : 3 0 | 8 : 3 3 | 82 : 3 2 | 27 : 2 0 | 18 : 2 1 | 95 : 2 2 | 48 : 2 3 | 25 : 1 3 | 46 : 1 2 | 88 : 1 1 | 54 : 1 0 | 12 : 0 2 | 21 : 0 3 | 7 : 0 0 | 1 : 0 1 
  </relation>
  <relation name="4_9" arity="2" nbTuples="16" semantics="soft" defaultCost="0">
    9 : 3 1 | 54 : 3 0 | 75 : 3 3 | 58 : 3 2 | 67 : 2 0 | 39 : 2 1 | 68 : 2 2 | 15 : 2 3 | 32 : 1 3 | 20 : 1 2 | 72 : 1 1 | 82 : 1 0 | 93 : 0 2 | 53 : 0 3 | 77 : 0 0 | 61 : 0 1 
  </relation>
  <relation name="4_12" arity="2" nbTuples="16" semantics="soft" defaultCost="0">
    56 : 3 1 | 79 : 3 0 | 2 : 3 3 | 55 : 3 2 | 16 : 2 0 | 90 : 2 1 | 10 : 2 2 | 84 : 2 3 | 86 : 1 3 | 34 : 1 2 | 45 : 1 1 | 84 : 1 0 | 77 : 0 2 | 83 : 0 3 | 22 : 0 0 | 30 : 0 1 
  </relation>
  <relation name="4_17" arity="2" nbTuples="16" semantics="soft" defaultCost="0">
    57 : 3 1 | 15 : 3 0 | 87 : 3 3 | 74 : 3 2 | 38 : 2 0 | 78 : 2 1 | 100 : 2 2 | 15 : 2 3 | 66 : 1 3 | 47 : 1 2 | 3 : 1 1 | 58 : 1 0 | 94 : 0 2 | 49 : 0 3 | 69 : 0 0 | 77 : 0 1 
  </relation>
  <relation name="4_20" arity="2" nbTuples="16" semantics="soft" defaultCost="0">
    79 : 3 1 | 1 : 3 0 | 17 : 3 3 | 11 : 3 2 | 46 : 2 0 | 22 : 2 1 | 54 : 2 2 | 50 : 2 3 | 59 : 1 3 | 27 : 1 2 | 17 : 1 1 | 72 : 1 0 | 57 : 0 2 | 96 : 0 3 | 59 : 0 0 | 56 : 0 1 
  </relation>
  <relation name="4_23" arity="2" nbTuples="16" semantics="soft" defaultCost="0">
    18 : 3 1 | 85 : 3 0 | 12 : 3 3 | 13 : 3 2 | 93 : 2 0 | 4 : 2 1 | 24 : 2 2 | 88 : 2 3 | 48 : 1 3 | 23 : 1 2 | 40 : 1 1 | 80 : 1 0 | 63 : 0 2 | 16 : 0 3 | 10 : 0 0 | 35 : 0 1 
  </relation>
  <relation name="5_6" arity="2" nbTuples="16" semantics="soft" defaultCost="0">
    89 : 3 1 | 78 : 3 0 | 1 : 3 3 | 16 : 3 2 | 83 : 2 0 | 92 : 2 1 | 1 : 2 2 | 26 : 2 3 | 70 : 1 3 | 44 : 1 2 | 36 : 1 1 | 8 : 1 0 | 53 : 0 2 | 26 : 0 3 | 7 : 0 0 | 25 : 0 1 
  </relation>
  <relation name="5_7" arity="2" nbTuples="16" semantics="soft" defaultCost="0">
    54 : 3 1 | 96 : 3 0 | 46 : 3 3 | 59 : 3 2 | 20 : 2 0 | 11 : 2 1 | 71 : 2 2 | 23 : 2 3 | 48 : 1 3 | 38 : 1 2 | 56 : 1 1 | 20 : 1 0 | 23 : 0 2 | 97 : 0 3 | 92 : 0 0 | 22 : 0 1 
  </relation>
  <relation name="5_8" arity="2" nbTuples="16" semantics="soft" defaultCost="0">
    84 : 3 1 | 51 : 3 0 | 95 : 3 3 | 76 : 3 2 | 6 : 2 0 | 2 : 2 1 | 71 : 2 2 | 86 : 2 3 | 76 : 1 3 | 82 : 1 2 | 34 : 1 1 | 20 : 1 0 | 46 : 0 2 | 16 : 0 3 | 15 : 0 0 | 78 : 0 1 
  </relation>
  <relation name="5_12" arity="2" nbTuples="16" semantics="soft" defaultCost="0">
    76 : 3 1 | 44 : 3 0 | 77 : 3 3 | 42 : 3 2 | 15 : 2 0 | 18 : 2 1 | 69 : 2 2 | 95 : 2 3 | 32 : 1 3 | 81 : 1 2 | 17 : 1 1 | 46 : 1 0 | 27 : 0 2 | 6 : 0 3 | 76 : 0 0 | 77 : 0 1 
  </relation>
  <relation name="5_13" arity="2" nbTuples="16" semantics="soft" defaultCost="0">
    66 : 3 1 | 16 : 3 0 | 30 : 3 3 | 51 : 3 2 | 24 : 2 0 | 79 : 2 1 | 72 : 2 2 | 29 : 2 3 | 62 : 1 3 | 14 : 1 2 | 92 : 1 1 | 76 : 1 0 | 91 : 0 2 | 75 : 0 3 | 95 : 0 0 | 1 : 0 1 
  </relation>
  <relation name="5_17" arity="2" nbTuples="16" semantics="soft" defaultCost="0">
    20 : 3 1 | 49 : 3 0 | 6 : 3 3 | 92 : 3 2 | 61 : 2 0 | 91 : 2 1 | 9 : 2 2 | 90 : 2 3 | 62 : 1 3 | 24 : 1 2 | 82 : 1 1 | 68 : 1 0 | 68 : 0 2 | 43 : 0 3 | 30 : 0 0 | 98 : 0 1 
  </relation>
  <relation name="5_21" arity="2" nbTuples="16" semantics="soft" defaultCost="0">
    24 : 3 1 | 90 : 3 0 | 36 : 3 3 | 3 : 3 2 | 13 : 2 0 | 13 : 2 1 | 98 : 2 2 | 78 : 2 3 | 97 : 1 3 | 21 : 1 2 | 46 : 1 1 | 24 : 1 0 | 25 : 0 2 | 99 : 0 3 | 22 : 0 0 | 3 : 0 1 
  </relation>
  <relation name="6_7" arity="2" nbTuples="16" semantics="soft" defaultCost="0">
    30 : 3 1 | 17 : 3 0 | 42 : 3 3 | 10 : 3 2 | 23 : 2 0 | 59 : 2 1 | 17 : 2 2 | 28 : 2 3 | 70 : 1 3 | 2 : 1 2 | 87 : 1 1 | 53 : 1 0 | 57 : 0 2 | 4 : 0 3 | 46 : 0 0 | 33 : 0 1 
  </relation>
  <relation name="6_9" arity="2" nbTuples="16" semantics="soft" defaultCost="0">
    59 : 3 1 | 45 : 3 0 | 94 : 3 3 | 43 : 3 2 | 98 : 2 0 | 6 : 2 1 | 65 : 2 2 | 53 : 2 3 | 18 : 1 3 | 87 : 1 2 | 22 : 1 1 | 76 : 1 0 | 76 : 0 2 | 46 : 0 3 | 23 : 0 0 | 90 : 0 1 
  </relation>
  <relation name="6_10" arity="2" nbTuples="16" semantics="soft" defaultCost="0">
    10 : 3 1 | 48 : 3 0 | 35 : 3 3 | 24 : 3 2 | 58 : 2 0 | 69 : 2 1 | 26 : 2 2 | 25 : 2 3 | 82 : 1 3 | 75 : 1 2 | 88 : 1 1 | 19 : 1 0 | 13 : 0 2 | 46 : 0 3 | 3 : 0 0 | 43 : 0 1 
  </relation>
  <relation name="6_12" arity="2" nbTuples="16" semantics="soft" defaultCost="0">
    6 : 3 1 | 61 : 3 0 | 12 : 3 3 | 76 : 3 2 | 46 : 2 0 | 54 : 2 1 | 49 : 2 2 | 91 : 2 3 | 92 : 1 3 | 1 : 1 2 | 59 : 1 1 | 84 : 1 0 | 57 : 0 2 | 97 : 0 3 | 12 : 0 0 | 60 : 0 1 
  </relation>
  <relation name="6_19" arity="2" nbTuples="16" semantics="soft" defaultCost="0">
    97 : 3 1 | 2 : 3 0 | 23 : 3 3 | 38 : 3 2 | 67 : 2 0 | 10 : 2 1 | 7 : 2 2 | 47 : 2 3 | 77 : 1 3 | 47 : 1 2 | 35 : 1 1 | 97 : 1 0 | 93 : 0 2 | 31 : 0 3 | 29 : 0 0 | 96 : 0 1 
  </relation>
  <relation name="6_23" arity="2" nbTuples="16" semantics="soft" defaultCost="0">
    39 : 3 1 | 62 : 3 0 | 19 : 3 3 | 53 : 3 2 | 94 : 2 0 | 63 : 2 1 | 57 : 2 2 | 71 : 2 3 | 64 : 1 3 | 46 : 1 2 | 94 : 1 1 | 4 : 1 0 | 54 : 0 2 | 6 : 0 3 | 12 : 0 0 | 3 : 0 1 
  </relation>
  <relation name="6_24" arity="2" nbTuples="16" semantics="soft" defaultCost="0">
    98 : 3 1 | 71 : 3 0 | 85 : 3 3 | 44 : 3 2 | 45 : 2 0 | 50 : 2 1 | 13 : 2 2 | 20 : 2 3 | 13 : 1 3 | 91 : 1 2 | 80 : 1 1 | 89 : 1 0 | 85 : 0 2 | 10 : 0 3 | 53 : 0 0 | 9 : 0 1 
  </relation>
  <relation name="7_8" arity="2" nbTuples="16" semantics="soft" defaultCost="0">
    82 : 3 1 | 74 : 3 0 | 59 : 3 3 | 77 : 3 2 | 63 : 2 0 | 68 : 2 1 | 43 : 2 2 | 17 : 2 3 | 8 : 1 3 | 44 : 1 2 | 19 : 1 1 | 5 : 1 0 | 23 : 0 2 | 63 : 0 3 | 26 : 0 0 | 37 : 0 1 
  </relation>
  <relation name="7_9" arity="2" nbTuples="16" semantics="soft" defaultCost="0">
    25 : 3 1 | 10 : 3 0 | 54 : 3 3 | 60 : 3 2 | 67 : 2 0 | 69 : 2 1 | 48 : 2 2 | 62 : 2 3 | 45 : 1 3 | 78 : 1 2 | 99 : 1 1 | 93 : 1 0 | 67 : 0 2 | 36 : 0 3 | 3 : 0 0 | 88 : 0 1 
  </relation>
  <relation name="7_15" arity="2" nbTuples="16" semantics="soft" defaultCost="0">
    45 : 3 1 | 42 : 3 0 | 40 : 3 3 | 61 : 3 2 | 27 : 2 0 | 91 : 2 1 | 77 : 2 2 | 55 : 2 3 | 58 : 1 3 | 73 : 1 2 | 58 : 1 1 | 23 : 1 0 | 62 : 0 2 | 12 : 0 3 | 48 : 0 0 | 92 : 0 1 
  </relation>
  <relation name="7_19" arity="2" nbTuples="16" semantics="soft" defaultCost="0">
    56 : 3 1 | 30 : 3 0 | 34 : 3 3 | 66 : 3 2 | 51 : 2 0 | 28 : 2 1 | 51 : 2 2 | 47 : 2 3 | 33 : 1 3 | 90 : 1 2 | 64 : 1 1 | 82 : 1 0 | 57 : 0 2 | 92 : 0 3 | 35 : 0 0 | 66 : 0 1 
  </relation>
  <relation name="7_22" arity="2" nbTuples="16" semantics="soft" defaultCost="0">
    6 : 3 1 | 1 : 3 0 | 83 : 3 3 | 97 : 3 2 | 65 : 2 0 | 47 : 2 1 | 86 : 2 2 | 76 : 2 3 | 45 : 1 3 | 93 : 1 2 | 91 : 1 1 | 79 : 1 0 | 17 : 0 2 | 58 : 0 3 | 29 : 0 0 | 42 : 0 1 
  </relation>
  <relation name="8_10" arity="2" nbTuples="16" semantics="soft" defaultCost="0">
    4 : 3 1 | 30 : 3 0 | 79 : 3 3 | 11 : 3 2 | 97 : 2 0 | 38 : 2 1 | 83 : 2 2 | 49 : 2 3 | 26 : 1 3 | 93 : 1 2 | 91 : 1 1 | 74 : 1 0 | 35 : 0 2 | 58 : 0 3 | 5 : 0 0 | 53 : 0 1 
  </relation>
  <relation name="8_11" arity="2" nbTuples="16" semantics="soft" defaultCost="0">
    55 : 3 1 | 67 : 3 0 | 95 : 3 3 | 40 : 3 2 | 80 : 2 0 | 26 : 2 1 | 32 : 2 2 | 92 : 2 3 | 59 : 1 3 | 26 : 1 2 | 87 : 1 1 | 43 : 1 0 | 59 : 0 2 | 20 : 0 3 | 88 : 0 0 | 24 : 0 1 
  </relation>
  <relation name="8_14" arity="2" nbTuples="16" semantics="soft" defaultCost="0">
    23 : 3 1 | 36 : 3 0 | 61 : 3 3 | 85 : 3 2 | 72 : 2 0 | 18 : 2 1 | 97 : 2 2 | 17 : 2 3 | 22 : 1 3 | 49 : 1 2 | 70 : 1 1 | 25 : 1 0 | 45 : 0 2 | 72 : 0 3 | 85 : 0 0 | 80 : 0 1 
  </relation>
  <relation name="8_17" arity="2" nbTuples="16" semantics="soft" defaultCost="0">
    93 : 3 1 | 76 : 3 0 | 38 : 3 3 | 28 : 3 2 | 85 : 2 0 | 31 : 2 1 | 91 : 2 2 | 95 : 2 3 | 4 : 1 3 | 31 : 1 2 | 27 : 1 1 | 5 : 1 0 | 36 : 0 2 | 5 : 0 3 | 4 : 0 0 | 12 : 0 1 
  </relation>
  <relation name="8_19" arity="2" nbTuples="16" semantics="soft" defaultCost="0">
    20 : 3 1 | 95 : 3 0 | 59 : 3 3 | 81 : 3 2 | 58 : 2 0 | 17 : 2 1 | 53 : 2 2 | 25 : 2 3 | 28 : 1 3 | 93 : 1 2 | 45 : 1 1 | 67 : 1 0 | 3 : 0 2 | 43 : 0 3 | 28 : 0 0 | 4 : 0 1 
  </relation>
  <relation name="8_24" arity="2" nbTuples="16" semantics="soft" defaultCost="0">
    42 : 3 1 | 38 : 3 0 | 77 : 3 3 | 84 : 3 2 | 98 : 2 0 | 99 : 2 1 | 68 : 2 2 | 23 : 2 3 | 76 : 1 3 | 79 : 1 2 | 81 : 1 1 | 8 : 1 0 | 70 : 0 2 | 15 : 0 3 | 11 : 0 0 | 10 : 0 1 
  </relation>
  <relation name="9_10" arity="2" nbTuples="16" semantics="soft" defaultCost="0">
    29 : 3 1 | 82 : 3 0 | 34 : 3 3 | 45 : 3 2 | 78 : 2 0 | 52 : 2 1 | 95 : 2 2 | 50 : 2 3 | 24 : 1 3 | 26 : 1 2 | 94 : 1 1 | 74 : 1 0 | 87 : 0 2 | 11 : 0 3 | 8 : 0 0 | 73 : 0 1 
  </relation>
  <relation name="9_11" arity="2" nbTuples="16" semantics="soft" defaultCost="0">
    29 : 3 1 | 53 : 3 0 | 26 : 3 3 | 55 : 3 2 | 92 : 2 0 | 74 : 2 1 | 29 : 2 2 | 34 : 2 3 | 97 : 1 3 | 46 : 1 2 | 74 : 1 1 | 87 : 1 0 | 92 : 0 2 | 9 : 0 3 | 34 : 0 0 | 59 : 0 1 
  </relation>
  <relation name="9_13" arity="2" nbTuples="16" semantics="soft" defaultCost="0">
    90 : 3 1 | 67 : 3 0 | 51 : 3 3 | 64 : 3 2 | 51 : 2 0 | 66 : 2 1 | 5 : 2 2 | 27 : 2 3 | 82 : 1 3 | 26 : 1 2 | 53 : 1 1 | 88 : 1 0 | 93 : 0 2 | 31 : 0 3 | 63 : 0 0 | 89 : 0 1 
  </relation>
  <relation name="9_14" arity="2" nbTuples="16" semantics="soft" defaultCost="0">
    74 : 3 1 | 26 : 3 0 | 24 : 3 3 | 71 : 3 2 | 1 : 2 0 | 97 : 2 1 | 27 : 2 2 | 12 : 2 3 | 48 : 1 3 | 75 : 1 2 | 34 : 1 1 | 92 : 1 0 | 97 : 0 2 | 33 : 0 3 | 93 : 0 0 | 61 : 0 1 
  </relation>
  <relation name="9_15" arity="2" nbTuples="16" semantics="soft" defaultCost="0">
    42 : 3 1 | 65 : 3 0 | 62 : 3 3 | 96 : 3 2 | 88 : 2 0 | 28 : 2 1 | 38 : 2 2 | 78 : 2 3 | 76 : 1 3 | 91 : 1 2 | 85 : 1 1 | 19 : 1 0 | 3 : 0 2 | 40 : 0 3 | 29 : 0 0 | 48 : 0 1 
  </relation>
  <relation name="9_17" arity="2" nbTuples="16" semantics="soft" defaultCost="0">
    89 : 3 1 | 21 : 3 0 | 76 : 3 3 | 29 : 3 2 | 61 : 2 0 | 60 : 2 1 | 31 : 2 2 | 73 : 2 3 | 61 : 1 3 | 48 : 1 2 | 76 : 1 1 | 94 : 1 0 | 16 : 0 2 | 16 : 0 3 | 15 : 0 0 | 61 : 0 1 
  </relation>
  <relation name="9_21" arity="2" nbTuples="16" semantics="soft" defaultCost="0">
    58 : 3 1 | 73 : 3 0 | 94 : 3 3 | 33 : 3 2 | 87 : 2 0 | 73 : 2 1 | 19 : 2 2 | 73 : 2 3 | 30 : 1 3 | 56 : 1 2 | 65 : 1 1 | 89 : 1 0 | 36 : 0 2 | 29 : 0 3 | 18 : 0 0 | 43 : 0 1 
  </relation>
  <relation name="10_12" arity="2" nbTuples="16" semantics="soft" defaultCost="0">
    96 : 3 1 | 84 : 3 0 | 92 : 3 3 | 22 : 3 2 | 54 : 2 0 | 75 : 2 1 | 9 : 2 2 | 92 : 2 3 | 64 : 1 3 | 70 : 1 2 | 14 : 1 1 | 3 : 1 0 | 65 : 0 2 | 86 : 0 3 | 54 : 0 0 | 87 : 0 1 
  </relation>
  <relation name="10_13" arity="2" nbTuples="16" semantics="soft" defaultCost="0">
    16 : 3 1 | 4 : 3 0 | 49 : 3 3 | 98 : 3 2 | 74 : 2 0 | 64 : 2 1 | 39 : 2 2 | 23 : 2 3 | 29 : 1 3 | 36 : 1 2 | 15 : 1 1 | 26 : 1 0 | 31 : 0 2 | 11 : 0 3 | 48 : 0 0 | 12 : 0 1 
  </relation>
  <relation name="10_15" arity="2" nbTuples="16" semantics="soft" defaultCost="0">
    37 : 3 1 | 73 : 3 0 | 52 : 3 3 | 12 : 3 2 | 61 : 2 0 | 48 : 2 1 | 61 : 2 2 | 57 : 2 3 | 12 : 1 3 | 28 : 1 2 | 67 : 1 1 | 82 : 1 0 | 1 : 0 2 | 55 : 0 3 | 70 : 0 0 | 80 : 0 1 
  </relation>
  <relation name="10_20" arity="2" nbTuples="16" semantics="soft" defaultCost="0">
    68 : 3 1 | 52 : 3 0 | 98 : 3 3 | 19 : 3 2 | 63 : 2 0 | 83 : 2 1 | 81 : 2 2 | 65 : 2 3 | 55 : 1 3 | 98 : 1 2 | 74 : 1 1 | 48 : 1 0 | 89 : 0 2 | 34 : 0 3 | 5 : 0 0 | 39 : 0 1 
  </relation>
  <relation name="11_13" arity="2" nbTuples="16" semantics="soft" defaultCost="0">
    31 : 3 1 | 62 : 3 0 | 95 : 3 3 | 22 : 3 2 | 60 : 2 0 | 58 : 2 1 | 75 : 2 2 | 9 : 2 3 | 68 : 1 3 | 85 : 1 2 | 94 : 1 1 | 99 : 1 0 | 28 : 0 2 | 81 : 0 3 | 45 : 0 0 | 72 : 0 1 
  </relation>
  <relation name="11_16" arity="2" nbTuples="16" semantics="soft" defaultCost="0">
    68 : 3 1 | 69 : 3 0 | 92 : 3 3 | 57 : 3 2 | 65 : 2 0 | 58 : 2 1 | 9 : 2 2 | 57 : 2 3 | 42 : 1 3 | 69 : 1 2 | 81 : 1 1 | 53 : 1 0 | 94 : 0 2 | 90 : 0 3 | 100 : 0 0 | 46 : 0 1 
  </relation>
  <relation name="11_17" arity="2" nbTuples="16" semantics="soft" defaultCost="0">
    33 : 3 1 | 48 : 3 0 | 38 : 3 3 | 64 : 3 2 | 65 : 2 0 | 41 : 2 1 | 73 : 2 2 | 83 : 2 3 | 23 : 1 3 | 19 : 1 2 | 13 : 1 1 | 89 : 1 0 | 6 : 0 2 | 10 : 0 3 | 74 : 0 0 | 99 : 0 1 
  </relation>
  <relation name="11_19" arity="2" nbTuples="16" semantics="soft" defaultCost="0">
    48 : 3 1 | 81 : 3 0 | 71 : 3 3 | 68 : 3 2 | 83 : 2 0 | 62 : 2 1 | 58 : 2 2 | 80 : 2 3 | 83 : 1 3 | 59 : 1 2 | 4 : 1 1 | 16 : 1 0 | 27 : 0 2 | 60 : 0 3 | 12 : 0 0 | 85 : 0 1 
  </relation>
  <relation name="11_20" arity="2" nbTuples="16" semantics="soft" defaultCost="0">
    86 : 3 1 | 95 : 3 0 | 78 : 3 3 | 88 : 3 2 | 88 : 2 0 | 30 : 2 1 | 84 : 2 2 | 64 : 2 3 | 24 : 1 3 | 27 : 1 2 | 30 : 1 1 | 68 : 1 0 | 71 : 0 2 | 37 : 0 3 | 8 : 0 0 | 86 : 0 1 
  </relation>
  <relation name="11_22" arity="2" nbTuples="16" semantics="soft" defaultCost="0">
    43 : 3 1 | 41 : 3 0 | 45 : 3 3 | 42 : 3 2 | 83 : 2 0 | 26 : 2 1 | 5 : 2 2 | 44 : 2 3 | 84 : 1 3 | 26 : 1 2 | 6 : 1 1 | 11 : 1 0 | 42 : 0 2 | 86 : 0 3 | 15 : 0 0 | 70 : 0 1 
  </relation>
  <relation name="11_24" arity="2" nbTuples="16" semantics="soft" defaultCost="0">
    2 : 3 1 | 72 : 3 0 | 77 : 3 3 | 27 : 3 2 | 98 : 2 0 | 85 : 2 1 | 37 : 2 2 | 44 : 2 3 | 15 : 1 3 | 11 : 1 2 | 11 : 1 1 | 7 : 1 0 | 27 : 0 2 | 49 : 0 3 | 77 : 0 0 | 36 : 0 1 
  </relation>
  <relation name="12_13" arity="2" nbTuples="16" semantics="soft" defaultCost="0">
    72 : 3 1 | 49 : 3 0 | 22 : 3 3 | 56 : 3 2 | 75 : 2 0 | 69 : 2 1 | 63 : 2 2 | 51 : 2 3 | 65 : 1 3 | 82 : 1 2 | 75 : 1 1 | 78 : 1 0 | 47 : 0 2 | 70 : 0 3 | 98 : 0 0 | 30 : 0 1 
  </relation>
  <relation name="12_14" arity="2" nbTuples="16" semantics="soft" defaultCost="0">
    48 : 3 1 | 89 : 3 0 | 46 : 3 3 | 68 : 3 2 | 40 : 2 0 | 88 : 2 1 | 58 : 2 2 | 57 : 2 3 | 100 : 1 3 | 52 : 1 2 | 75 : 1 1 | 68 : 1 0 | 60 : 0 2 | 26 : 0 3 | 37 : 0 0 | 45 : 0 1 
  </relation>
  <relation name="12_15" arity="2" nbTuples="16" semantics="soft" defaultCost="0">
    93 : 3 1 | 63 : 3 0 | 61 : 3 3 | 57 : 3 2 | 23 : 2 0 | 64 : 2 1 | 27 : 2 2 | 18 : 2 3 | 70 : 1 3 | 58 : 1 2 | 96 : 1 1 | 41 : 1 0 | 12 : 0 2 | 82 : 0 3 | 36 : 0 0 | 33 : 0 1 
  </relation>
  <relation name="12_19" arity="2" nbTuples="16" semantics="soft" defaultCost="0">
    47 : 3 1 | 33 : 3 0 | 93 : 3 3 | 65 : 3 2 | 3 : 2 0 | 14 : 2 1 | 81 : 2 2 | 96 : 2 3 | 52 : 1 3 | 94 : 1 2 | 17 : 1 1 | 71 : 1 0 | 37 : 0 2 | 7 : 0 3 | 39 : 0 0 | 93 : 0 1 
  </relation>
  <relation name="12_20" arity="2" nbTuples="16" semantics="soft" defaultCost="0">
    69 : 3 1 | 89 : 3 0 | 6 : 3 3 | 54 : 3 2 | 61 : 2 0 | 40 : 2 1 | 95 : 2 2 | 49 : 2 3 | 15 : 1 3 | 24 : 1 2 | 10 : 1 1 | 12 : 1 0 | 45 : 0 2 | 36 : 0 3 | 60 : 0 0 | 94 : 0 1 
  </relation>
  <relation name="12_21" arity="2" nbTuples="16" semantics="soft" defaultCost="0">
    49 : 3 1 | 70 : 3 0 | 69 : 3 3 | 9 : 3 2 | 49 : 2 0 | 34 : 2 1 | 11 : 2 2 | 97 : 2 3 | 21 : 1 3 | 6 : 1 2 | 10 : 1 1 | 17 : 1 0 | 65 : 0 2 | 60 : 0 3 | 10 : 0 0 | 8 : 0 1 
  </relation>
  <relation name="13_16" arity="2" nbTuples="16" semantics="soft" defaultCost="0">
    54 : 3 1 | 71 : 3 0 | 3 : 3 3 | 74 : 3 2 | 14 : 2 0 | 52 : 2 1 | 30 : 2 2 | 4 : 2 3 | 40 : 1 3 | 36 : 1 2 | 64 : 1 1 | 17 : 1 0 | 24 : 0 2 | 72 : 0 3 | 26 : 0 0 | 32 : 0 1 
  </relation>
  <relation name="13_18" arity="2" nbTuples="16" semantics="soft" defaultCost="0">
    54 : 3 1 | 68 : 3 0 | 57 : 3 3 | 93 : 3 2 | 53 : 2 0 | 20 : 2 1 | 54 : 2 2 | 3 : 2 3 | 8 : 1 3 | 38 : 1 2 | 75 : 1 1 | 73 : 1 0 | 78 : 0 2 | 90 : 0 3 | 91 : 0 0 | 13 : 0 1 
  </relation>
  <relation name="13_22" arity="2" nbTuples="16" semantics="soft" defaultCost="0">
    68 : 3 1 | 53 : 3 0 | 84 : 3 3 | 56 : 3 2 | 39 : 2 0 | 87 : 2 1 | 64 : 2 2 | 14 : 2 3 | 90 : 1 3 | 100 : 1 2 | 14 : 1 1 | 15 : 1 0 | 89 : 0 2 | 99 : 0 3 | 58 : 0 0 | 91 : 0 1 
  </relation>
  <relation name="14_22" arity="2" nbTuples="16" semantics="soft" defaultCost="0">
    49 : 3 1 | 34 : 3 0 | 5 : 3 3 | 84 : 3 2 | 61 : 2 0 | 23 : 2 1 | 49 : 2 2 | 69 : 2 3 | 38 : 1 3 | 60 : 1 2 | 4 : 1 1 | 65 : 1 0 | 5 : 0 2 | 37 : 0 3 | 68 : 0 0 | 29 : 0 1 
  </relation>
  <relation name="14_24" arity="2" nbTuples="16" semantics="soft" defaultCost="0">
    1 : 3 1 | 21 : 3 0 | 47 : 3 3 | 86 : 3 2 | 16 : 2 0 | 68 : 2 1 | 7 : 2 2 | 62 : 2 3 | 90 : 1 3 | 82 : 1 2 | 70 : 1 1 | 85 : 1 0 | 17 : 0 2 | 36 : 0 3 | 75 : 0 0 | 90 : 0 1 
  </relation>
  <relation name="15_19" arity="2" nbTuples="16" semantics="soft" defaultCost="0">
    59 : 3 1 | 19 : 3 0 | 84 : 3 3 | 41 : 3 2 | 64 : 2 0 | 75 : 2 1 | 3 : 2 2 | 69 : 2 3 | 92 : 1 3 | 87 : 1 2 | 11 : 1 1 | 98 : 1 0 | 37 : 0 2 | 79 : 0 3 | 25 : 0 0 | 65 : 0 1 
  </relation>
  <relation name="15_21" arity="2" nbTuples="16" semantics="soft" defaultCost="0">
    38 : 3 1 | 98 : 3 0 | 26 : 3 3 | 74 : 3 2 | 45 : 2 0 | 4 : 2 1 | 97 : 2 2 | 46 : 2 3 | 10 : 1 3 | 28 : 1 2 | 56 : 1 1 | 78 : 1 0 | 62 : 0 2 | 64 : 0 3 | 63 : 0 0 | 85 : 0 1 
  </relation>
  <relation name="15_22" arity="2" nbTuples="16" semantics="soft" defaultCost="0">
    18 : 3 1 | 66 : 3 0 | 74 : 3 3 | 4 : 3 2 | 8 : 2 0 | 69 : 2 1 | 13 : 2 2 | 72 : 2 3 | 38 : 1 3 | 53 : 1 2 | 29 : 1 1 | 18 : 1 0 | 87 : 0 2 | 74 : 0 3 | 43 : 0 0 | 45 : 0 1 
  </relation>
  <relation name="15_24" arity="2" nbTuples="16" semantics="soft" defaultCost="0">
    93 : 3 1 | 15 : 3 0 | 7 : 3 3 | 67 : 3 2 | 52 : 2 0 | 33 : 2 1 | 13 : 2 2 | 36 : 2 3 | 20 : 1 3 | 11 : 1 2 | 93 : 1 1 | 41 : 1 0 | 100 : 0 2 | 14 : 0 3 | 51 : 0 0 | 45 : 0 1 
  </relation>
  <relation name="16_19" arity="2" nbTuples="16" semantics="soft" defaultCost="0">
    26 : 3 1 | 31 : 3 0 | 43 : 3 3 | 92 : 3 2 | 79 : 2 0 | 34 : 2 1 | 54 : 2 2 | 94 : 2 3 | 69 : 1 3 | 55 : 1 2 | 21 : 1 1 | 41 : 1 0 | 39 : 0 2 | 19 : 0 3 | 28 : 0 0 | 86 : 0 1 
  </relation>
  <relation name="16_22" arity="2" nbTuples="16" semantics="soft" defaultCost="0">
    36 : 3 1 | 13 : 3 0 | 22 : 3 3 | 50 : 3 2 | 38 : 2 0 | 70 : 2 1 | 92 : 2 2 | 73 : 2 3 | 94 : 1 3 | 46 : 1 2 | 82 : 1 1 | 60 : 1 0 | 42 : 0 2 | 81 : 0 3 | 45 : 0 0 | 63 : 0 1 
  </relation>
  <relation name="17_19" arity="2" nbTuples="16" semantics="soft" defaultCost="0">
    42 : 3 1 | 27 : 3 0 | 53 : 3 3 | 80 : 3 2 | 97 : 2 0 | 44 : 2 1 | 36 : 2 2 | 57 : 2 3 | 100 : 1 3 | 57 : 1 2 | 96 : 1 1 | 5 : 1 0 | 11 : 0 2 | 35 : 0 3 | 29 : 0 0 | 1 : 0 1 
  </relation>
  <relation name="17_22" arity="2" nbTuples="16" semantics="soft" defaultCost="0">
    28 : 3 1 | 93 : 3 0 | 88 : 3 3 | 32 : 3 2 | 47 : 2 0 | 81 : 2 1 | 27 : 2 2 | 5 : 2 3 | 48 : 1 3 | 29 : 1 2 | 16 : 1 1 | 14 : 1 0 | 21 : 0 2 | 5 : 0 3 | 57 : 0 0 | 37 : 0 1 
  </relation>
  <relation name="18_22" arity="2" nbTuples="16" semantics="soft" defaultCost="0">
    16 : 3 1 | 43 : 3 0 | 94 : 3 3 | 38 : 3 2 | 38 : 2 0 | 64 : 2 1 | 38 : 2 2 | 78 : 2 3 | 42 : 1 3 | 99 : 1 2 | 80 : 1 1 | 65 : 1 0 | 66 : 0 2 | 20 : 0 3 | 92 : 0 0 | 85 : 0 1 
  </relation>
  <relation name="18_21" arity="2" nbTuples="16" semantics="soft" defaultCost="0">
    95 : 3 1 | 98 : 3 0 | 45 : 3 3 | 68 : 3 2 | 1 : 2 0 | 36 : 2 1 | 94 : 2 2 | 23 : 2 3 | 25 : 1 3 | 79 : 1 2 | 43 : 1 1 | 36 : 1 0 | 99 : 0 2 | 47 : 0 3 | 17 : 0 0 | 84 : 0 1 
  </relation>
  <relation name="19_20" arity="2" nbTuples="16" semantics="soft" defaultCost="0">
    56 : 3 1 | 53 : 3 0 | 21 : 3 3 | 42 : 3 2 | 58 : 2 0 | 40 : 2 1 | 55 : 2 2 | 67 : 2 3 | 21 : 1 3 | 6 : 1 2 | 73 : 1 1 | 63 : 1 0 | 37 : 0 2 | 96 : 0 3 | 62 : 0 0 | 67 : 0 1 
  </relation>
  <relation name="20_22" arity="2" nbTuples="16" semantics="soft" defaultCost="0">
    71 : 3 1 | 62 : 3 0 | 26 : 3 3 | 90 : 3 2 | 98 : 2 0 | 56 : 2 1 | 32 : 2 2 | 5 : 2 3 | 71 : 1 3 | 43 : 1 2 | 10 : 1 1 | 60 : 1 0 | 73 : 0 2 | 44 : 0 3 | 45 : 0 0 | 63 : 0 1 
  </relation>
  <relation name="21_24" arity="2" nbTuples="16" semantics="soft" defaultCost="0">
    98 : 3 1 | 88 : 3 0 | 4 : 3 3 | 27 : 3 2 | 4 : 2 0 | 84 : 2 1 | 95 : 2 2 | 18 : 2 3 | 67 : 1 3 | 73 : 1 2 | 29 : 1 1 | 18 : 1 0 | 91 : 0 2 | 80 : 0 3 | 2 : 0 0 | 21 : 0 1 
  </relation>
</relations>

<constraints nbConstraints="105">
  <constraint name="0_1" arity="2" scope="v0 v1" reference="0_1" />
  <constraint name="0_5" arity="2" scope="v0 v5" reference="0_5" />
  <constraint name="0_8" arity="2" scope="v0 v8" reference="0_8" />
  <constraint name="0_15" arity="2" scope="v0 v15" reference="0_15" />
  <constraint name="0_17" arity="2" scope="v0 v17" reference="0_17" />
  <constraint name="0_20" arity="2" scope="v0 v20" reference="0_20" />
  <constraint name="0_23" arity="2" scope="v0 v23" reference="0_23" />
  <constraint name="1_4" arity="2" scope="v1 v4" reference="1_4" />
  <constraint name="1_7" arity="2" scope="v1 v7" reference="1_7" />
  <constraint name="1_8" arity="2" scope="v1 v8" reference="1_8" />
  <constraint name="1_11" arity="2" scope="v1 v11" reference="1_11" />
  <constraint name="1_12" arity="2" scope="v1 v12" reference="1_12" />
  <constraint name="1_13" arity="2" scope="v1 v13" reference="1_13" />
  <constraint name="1_15" arity="2" scope="v1 v15" reference="1_15" />
  <constraint name="1_18" arity="2" scope="v1 v18" reference="1_18" />
  <constraint name="1_22" arity="2" scope="v1 v22" reference="1_22" />
  <constraint name="1_24" arity="2" scope="v1 v24" reference="1_24" />
  <constraint name="2_5" arity="2" scope="v2 v5" reference="2_5" />
  <constraint name="2_6" arity="2" scope="v2 v6" reference="2_6" />
  <constraint name="2_9" arity="2" scope="v2 v9" reference="2_9" />
  <constraint name="2_13" arity="2" scope="v2 v13" reference="2_13" />
  <constraint name="2_17" arity="2" scope="v2 v17" reference="2_17" />
  <constraint name="2_18" arity="2" scope="v2 v18" reference="2_18" />
  <constraint name="2_19" arity="2" scope="v2 v19" reference="2_19" />
  <constraint name="2_24" arity="2" scope="v2 v24" reference="2_24" />
  <constraint name="3_5" arity="2" scope="v3 v5" reference="3_5" />
  <constraint name="3_6" arity="2" scope="v3 v6" reference="3_6" />
  <constraint name="3_8" arity="2" scope="v3 v8" reference="3_8" />
  <constraint name="3_17" arity="2" scope="v3 v17" reference="3_17" />
  <constraint name="3_21" arity="2" scope="v3 v21" reference="3_21" />
  <constraint name="3_22" arity="2" scope="v3 v22" reference="3_22" />
  <constraint name="3_24" arity="2" scope="v3 v24" reference="3_24" />
  <constraint name="4_7" arity="2" scope="v4 v7" reference="4_7" />
  <constraint name="4_9" arity="2" scope="v4 v9" reference="4_9" />
  <constraint name="4_12" arity="2" scope="v4 v12" reference="4_12" />
  <constraint name="4_17" arity="2" scope="v4 v17" reference="4_17" />
  <constraint name="4_20" arity="2" scope="v4 v20" reference="4_20" />
  <constraint name="4_23" arity="2" scope="v4 v23" reference="4_23" />
  <constraint name="5_6" arity="2" scope="v5 v6" reference="5_6" />
  <constraint name="5_7" arity="2" scope="v5 v7" reference="5_7" />
  <constraint name="5_8" arity="2" scope="v5 v8" reference="5_8" />
  <constraint name="5_12" arity="2" scope="v5 v12" reference="5_12" />
  <constraint name="5_13" arity="2" scope="v5 v13" reference="5_13" />
  <constraint name="5_17" arity="2" scope="v5 v17" reference="5_17" />
  <constraint name="5_21" arity="2" scope="v5 v21" reference="5_21" />
  <constraint name="6_7" arity="2" scope="v6 v7" reference="6_7" />
  <constraint name="6_9" arity="2" scope="v6 v9" reference="6_9" />
  <constraint name="6_10" arity="2" scope="v6 v10" reference="6_10" />
  <constraint name="6_12" arity="2" scope="v6 v12" reference="6_12" />
  <constraint name="6_19" arity="2" scope="v6 v19" reference="6_19" />
  <constraint name="6_23" arity="2" scope="v6 v23" reference="6_23" />
  <constraint name="6_24" arity="2" scope="v6 v24" reference="6_24" />
  <constraint name="7_8" arity="2" scope="v7 v8" reference="7_8" />
  <constraint name="7_9" arity="2" scope="v7 v9" reference="7_9" />
  <constraint name="7_15" arity="2" scope="v7 v15" reference="7_15" />
  <constraint name="7_19" arity="2" scope="v7 v19" reference="7_19" />
  <constraint name="7_22" arity="2" scope="v7 v22" reference="7_22" />
  <constraint name="8_10" arity="2" scope="v8 v10" reference="8_10" />
  <constraint name="8_11" arity="2" scope="v8 v11" reference="8_11" />
  <constraint name="8_14" arity="2" scope="v8 v14" reference="8_14" />
  <constraint name="8_17" arity="2" scope="v8 v17" reference="8_17" />
  <constraint name="8_19" arity="2" scope="v8 v19" reference="8_19" />
  <constraint name="8_24" arity="2" scope="v8 v24" reference="8_24" />
  <constraint name="9_10" arity="2" scope="v9 v10" reference="9_10" />
  <constraint name="9_11" arity="2" scope="v9 v11" reference="9_11" />
  <constraint name="9_13" arity="2" scope="v9 v13" reference="9_13" />
  <constraint name="9_14" arity="2" scope="v9 v14" reference="9_14" />
  <constraint name="9_15" arity="2" scope="v9 v15" reference="9_15" />
  <constraint name="9_17" arity="2" scope="v9 v17" reference="9_17" />
  <constraint name="9_21" arity="2" scope="v9 v21" reference="9_21" />
  <constraint name="10_12" arity="2" scope="v10 v12" reference="10_12" />
  <constraint name="10_13" arity="2" scope="v10 v13" reference="10_13" />
  <constraint name="10_15" arity="2" scope="v10 v15" reference="10_15" />
  <constraint name="10_20" arity="2" scope="v10 v20" reference="10_20" />
  <constraint name="11_13" arity="2" scope="v11 v13" reference="11_13" />
  <constraint name="11_16" arity="2" scope="v11 v16" reference="11_16" />
  <constraint name="11_17" arity="2" scope="v11 v17" reference="11_17" />
  <constraint name="11_19" arity="2" scope="v11 v19" reference="11_19" />
  <constraint name="11_20" arity="2" scope="v11 v20" reference="11_20" />
  <constraint name="11_22" arity="2" scope="v11 v22" reference="11_22" />
  <constraint name="11_24" arity="2" scope="v11 v24" reference="11_24" />
  <constraint name="12_13" arity="2" scope="v12 v13" reference="12_13" />
  <constraint name="12_14" arity="2" scope="v12 v14" reference="12_14" />
  <constraint name="12_15" arity="2" scope="v12 v15" reference="12_15" />
  <constraint name="12_19" arity="2" scope="v12 v19" reference="12_19" />
  <constraint name="12_20" arity="2" scope="v12 v20" reference="12_20" />
  <constraint name="12_21" arity="2" scope="v12 v21" reference="12_21" />
  <constraint name="13_16" arity="2" scope="v13 v16" reference="13_16" />
  <constraint name="13_18" arity="2" scope="v13 v18" reference="13_18" />
  <constraint name="13_22" arity="2" scope="v13 v22" reference="13_22" />
  <constraint name="14_22" arity="2" scope="v14 v22" reference="14_22" />
  <constraint name="14_24" arity="2" scope="v14 v24" reference="14_24" />
  <constraint name="15_19" arity="2" scope="v15 v19" reference="15_19" />
  <constraint name="15_21" arity="2" scope="v15 v21" reference="15_21" />
  <constraint name="15_22" arity="2" scope="v15 v22" reference="15_22" />
  <constraint name="15_24" arity="2" scope="v15 v24" reference="15_24" />
  <constraint name="16_19" arity="2" scope="v16 v19" reference="16_19" />
  <constraint name="16_22" arity="2" scope="v16 v22" reference="16_22" />
  <constraint name="17_19" arity="2" scope="v17 v19" reference="17_19" />
  <constraint name="17_22" arity="2" scope="v17 v22" reference="17_22" />
  <constraint name="18_22" arity="2" scope="v18 v22" reference="18_22" />
  <constraint name="18_21" arity="2" scope="v18 v21" reference="18_21" />
  <constraint name="19_20" arity="2" scope="v19 v20" reference="19_20" />
  <constraint name="20_22" arity="2" scope="v20 v22" reference="20_22" />
  <constraint name="21_24" arity="2" scope="v21 v24" reference="21_24" />
</constraints>
</instance >